LAMMPS (2 Aug 2023 - Update 3)
# 1) Initialization
units lj
dimension 3
atom_style atomic
pair_style lj/cut 2.5
boundary p p p



# 2) System definition
region simulation_box block -20 20 -20 20 -20 20
create_box 2 simulation_box
Created orthogonal box = (-20 -20 -20) to (20 20 20)
  1 by 1 by 1 MPI processor grid
create_atoms 1 random 1500 341341 simulation_box
Created 1500 atoms
  using lattice units in orthogonal box = (-20 -20 -20) to (20 20 20)
  create_atoms CPU = 0.000 seconds
create_atoms 2 random 100 127569 simulation_box
Created 100 atoms
  using lattice units in orthogonal box = (-20 -20 -20) to (20 20 20)
  create_atoms CPU = 0.000 seconds

# 3) Simulation settings
#mass * 1
mass 1 1
mass 2 1
pair_coeff 1 1 1.0 1.0
pair_coeff 2 2 0.5 3.0



# 4) Visualisation
thermo 10
thermo_style custom step temp pe ke etotal press


# 5) Run
minimize 1.0e-4 1.0e-6 1000 10000
Generated 1 of 1 mixed pair_coeff terms from geometric mixing rule
Neighbor list info ...
  update: every = 1 steps, delay = 0 steps, check = yes
  max neighbors/atom: 2000, page size: 100000
  master list distance cutoff = 2.8
  ghost atom cutoff = 2.8
  binsize = 1.4, bins = 29 29 29
  1 neighbor lists, perpetual/occasional/extra = 1 0 0
  (1) pair lj/cut, perpetual
      attributes: half, newton on
      pair build: half/bin/atomonly/newton
      stencil: half/bin/3d
      bin: standard
Per MPI rank memory allocation (min/avg/max) = 4.349 | 4.349 | 4.349 Mbytes
   Step          Temp          PotEng         KinEng         TotEng         Press     
         0   0              78840982       0              78840982       7884122      
        10   0              169.90532      0              169.90532      17.187291    
        20   0             -0.22335386     0             -0.22335386    -0.0034892297 
        30   0             -0.31178296     0             -0.31178296    -0.0027290466 
        40   0             -0.38135002     0             -0.38135002    -0.0016419218 
        50   0             -0.42686621     0             -0.42686621    -0.0015219081 
        60   0             -0.46153953     0             -0.46153953    -0.0010659992 
        70   0             -0.48581568     0             -0.48581568    -0.0014849169 
        80   0             -0.51799572     0             -0.51799572    -0.0012995545 
        90   0             -0.5527325      0             -0.5527325     -0.0013134141 
       100   0             -0.57968749     0             -0.57968749    -0.0011100224 
       110   0             -0.60215558     0             -0.60215558    -0.00098759057
       120   0             -0.62309042     0             -0.62309042    -0.00087882184
       130   0             -0.64171723     0             -0.64171723    -0.00079695034
       140   0             -0.66426829     0             -0.66426829    -0.00078657225
       150   0             -0.68078115     0             -0.68078115    -0.00057901343
       160   0             -0.69138844     0             -0.69138844    -0.00052420875
       170   0             -0.69940106     0             -0.69940106    -0.00052257534
       180   0             -0.71191671     0             -0.71191671    -0.00065345886
       190   0             -0.72443413     0             -0.72443413    -0.00077660759
       200   0             -0.74251731     0             -0.74251731    -0.00073625613
       210   0             -0.75377039     0             -0.75377039    -0.00055452671
       220   0             -0.76589012     0             -0.76589012    -0.00045902062
       230   0             -0.77750363     0             -0.77750363    -0.00074145233
       240   0             -0.79681468     0             -0.79681468    -0.00057655191
       250   0             -0.81399527     0             -0.81399527    -0.0005045172 
       260   0             -0.82628593     0             -0.82628593    -0.00042837406
       270   0             -0.83967584     0             -0.83967584    -0.00041530218
       280   0             -0.85161215     0             -0.85161215    -0.00038360751
       290   0             -0.86209868     0             -0.86209868    -0.00043975696
       300   0             -0.87047972     0             -0.87047972    -0.00040680744
       310   0             -0.88588815     0             -0.88588815    -0.0003645224 
       320   0             -0.89560094     0             -0.89560094    -0.00038480614
       330   0             -0.90558113     0             -0.90558113    -0.00041748464
       340   0             -0.9173198      0             -0.9173198     -0.00032334904
       350   0             -0.92524189     0             -0.92524189    -0.00025106002
       360   0             -0.93349636     0             -0.93349636    -0.0004206881 
       370   0             -0.9402956      0             -0.9402956     -0.0003008199 
       380   0             -0.95003315     0             -0.95003315    -0.00035465126
       388   0             -0.95358725     0             -0.95358725    -0.00031255895
Loop time of 0.0946229 on 1 procs for 388 steps with 1600 atoms

99.5% CPU use with 1 MPI tasks x no OpenMP threads

Minimization stats:
  Stopping criterion = energy tolerance
  Energy initial, next-to-last, final = 
      78840982.4763646 -0.953542684578274 -0.953587250376872
  Force two-norm initial, final = 1.6033542e+13 8.4209032
  Force max component initial, final = 1.0518609e+13 3.0313935
  Final line search alpha, max atom move = 0.00078464023 0.0023785533
  Iterations, force evaluations = 388 786

MPI task timing breakdown:
Section |  min time  |  avg time  |  max time  |%varavg| %total
---------------------------------------------------------------
Pair    | 0.024488   | 0.024488   | 0.024488   |   0.0 | 25.88
Neigh   | 0.035852   | 0.035852   | 0.035852   |   0.0 | 37.89
Comm    | 0.0053801  | 0.0053801  | 0.0053801  |   0.0 |  5.69
Output  | 0.00035146 | 0.00035146 | 0.00035146 |   0.0 |  0.37
Modify  | 0          | 0          | 0          |   0.0 |  0.00
Other   |            | 0.02855    |            |       | 30.17

Nlocal:           1600 ave        1600 max        1600 min
Histogram: 1 0 0 0 0 0 0 0 0 0
Nghost:            756 ave         756 max         756 min
Histogram: 1 0 0 0 0 0 0 0 0 0
Neighs:           2180 ave        2180 max        2180 min
Histogram: 1 0 0 0 0 0 0 0 0 0

Total # of neighbors = 2180
Ave neighs/atom = 1.3625
Neighbor list builds = 142
Dangerous builds = 0

# PART B - MOLECULAR DYNAMICS
# 4) Visualization
thermo 50
dump mydmp all atom 100 dump.lammpstrj


# 5) Run
fix mynve all nve
fix mylgv all langevin 1.0 1.0 0.1 1530917
timestep 0.005
run 10000
Generated 1 of 1 mixed pair_coeff terms from geometric mixing rule
Per MPI rank memory allocation (min/avg/max) = 3.224 | 3.224 | 3.224 Mbytes
   Step          Temp          PotEng         KinEng         TotEng         Press     
       388   0             -0.95358725     0             -0.95358725    -0.00031255895
       400   0.68494142    -0.90731117     1.02677        0.11945883     0.023910846  
       450   0.96458093    -0.66942718     1.4459671      0.77653992     0.026084227  
       500   0.96917985    -0.56561476     1.4528612      0.88724641     0.024567924  
       550   1.0010038     -0.49145711     1.5005673      1.0091102      0.025447712  
       600   1.033453      -0.43965273     1.5492106      1.1095579      0.028024147  
       650   0.9918246     -0.42243231     1.4868071      1.0643748      0.025296961  
       700   1.0127182     -0.40182668     1.5181278      1.1163011      0.022976409  
       750   0.99290285    -0.39719111     1.4884234      1.0912323      0.02303322   
       800   0.98339203    -0.37733126     1.4741661      1.0968349      0.023029761  
       850   1.0412614     -0.36875778     1.5609159      1.1921581      0.02336995   
       900   1.0012809     -0.34475966     1.5009827      1.156223       0.023658114  
       950   0.98848948    -0.33489978     1.4818075      1.1469077      0.02329401   
      1000   0.9879649     -0.3153951      1.4810211      1.165626       0.02211776   
      1050   1.0005602     -0.31199018     1.4999022      1.187912       0.022221548  
      1100   0.99241845    -0.29118814     1.4876973      1.1965091      0.022629115  
      1150   0.97203291    -0.29967549     1.4571381      1.1574626      0.021014741  
      1200   1.0254093     -0.2890055      1.5371526      1.2481471      0.024099661  
      1250   0.99097705    -0.28935465     1.4855365      1.1961819      0.021406453  
      1300   1.001518      -0.29301744     1.5013381      1.2083207      0.022077677  
      1350   0.97559814    -0.28491576     1.4624826      1.1775668      0.02308709   
      1400   0.99487209    -0.2709756      1.4913754      1.2203998      0.023321626  
      1450   0.97424376    -0.27136561     1.4604523      1.1890867      0.023161608  
      1500   1.0374539     -0.28396315     1.5552082      1.2712451      0.023269819  
      1550   0.97770051    -0.27853966     1.4656342      1.1870945      0.022919437  
      1600   0.99525169    -0.27311982     1.4919445      1.2188247      0.022769529  
      1650   0.98424296    -0.26745985     1.4754417      1.2079819      0.024628055  
      1700   0.9835963     -0.25912965     1.4744723      1.2153427      0.023481164  
      1750   0.97132566    -0.25351787     1.4560779      1.20256        0.021733151  
      1800   1.0301883     -0.25310283     1.5443166      1.2912138      0.022962339  
      1850   1.0082915     -0.24559576     1.5114919      1.2658962      0.023633128  
      1900   0.9953721     -0.25107156     1.492125       1.2410534      0.023217393  
      1950   0.99907485    -0.24641727     1.4976756      1.2512584      0.022943792  
      2000   1.045583      -0.24367638     1.5673943      1.3237179      0.024014996  
      2050   1.0370303     -0.23922621     1.5545733      1.3153471      0.025208654  
      2100   0.98924852    -0.23959121     1.4829454      1.2433542      0.02356983   
      2150   0.9809536     -0.24384599     1.4705108      1.2266648      0.023203744  
      2200   0.9825444     -0.23863642     1.4728955      1.234259       0.022815     
      2250   0.98955768    -0.23945224     1.4834088      1.2439566      0.022353278  
      2300   1.0277715     -0.23880201     1.5406937      1.3018917      0.023708993  
      2350   0.98127097    -0.22719601     1.4709865      1.2437905      0.023297208  
      2400   1.0163389     -0.2317442      1.5235556      1.2918114      0.023426333  
      2450   1.009164      -0.22323832     1.5127999      1.2895616      0.024209144  
      2500   1.0139262     -0.23171492     1.5199387      1.2882238      0.02197082   
      2550   1.006751      -0.23133804     1.5091826      1.2778446      0.023901202  
      2600   1.0055469     -0.23883168     1.5073776      1.268546       0.022146269  
      2650   1.0000217     -0.22937236     1.499095       1.2697226      0.023482333  
      2700   1.0323331     -0.23721475     1.5475319      1.3103172      0.023620365  
      2750   1.0034528     -0.24067263     1.5042385      1.2635659      0.022110692  
      2800   1.0055052     -0.23526062     1.5073151      1.2720545      0.023684209  
      2850   0.97760751    -0.22866183     1.4654948      1.2368329      0.023682578  
      2900   0.98053079    -0.23553343     1.4698769      1.2343435      0.022617889  
      2950   0.98445186    -0.23858367     1.4757549      1.2371712      0.022098304  
      3000   0.97355239    -0.24087919     1.4594159      1.2185367      0.021131557  
      3050   1.0108196     -0.23599932     1.5152818      1.2792825      0.023439737  
      3100   1.0380668     -0.23202269     1.556127       1.3241043      0.024192656  
      3150   1.020461      -0.2384184      1.5297348      1.2913164      0.023624136  
      3200   1.0088194     -0.2286919      1.5122834      1.2835915      0.024969819  
      3250   1.0191244     -0.23857411     1.5277312      1.2891571      0.023775435  
      3300   0.9904039     -0.24064263     1.4846774      1.2440347      0.022285119  
      3350   0.99709056    -0.24437796     1.4947011      1.2503231      0.023267683  
      3400   1.0007242     -0.24419426     1.5001482      1.2559539      0.023816555  
      3450   1.0025813     -0.24494785     1.502932       1.2579842      0.023180521  
      3500   0.98080554    -0.24988579     1.4702888      1.220403       0.022376745  
      3550   1.0174358     -0.24061279     1.5251999      1.2845871      0.025395862  
      3600   1.0169912     -0.2409593      1.5245333      1.283574       0.024577213  
      3650   1.0263478     -0.23647218     1.5385595      1.3020873      0.024665902  
      3700   0.99300803    -0.24211779     1.4885811      1.2464633      0.023933916  
      3750   0.98211412    -0.24677452     1.4722504      1.2254759      0.02281747   
      3800   1.0074225     -0.23451495     1.5101892      1.2756743      0.023869304  
      3850   1.0039893     -0.24009046     1.5050427      1.2649522      0.022489432  
      3900   0.98647023    -0.2297523      1.4787805      1.2490282      0.02376781   
      3950   0.98737774    -0.24275606     1.4801409      1.2373849      0.022290351  
      4000   1.0244477     -0.24684851     1.5357112      1.2888627      0.022808962  
      4050   1.0048088     -0.2505976      1.5062712      1.2556736      0.022610023  
      4100   1.0176515     -0.23400122     1.5255233      1.291522       0.02541925   
      4150   0.99983471    -0.2491899      1.4988147      1.2496248      0.023879814  
      4200   1.0470144     -0.25186733     1.5695401      1.3176727      0.024793822  
      4250   1.0028169     -0.24799583     1.5032852      1.2552894      0.022445073  
      4300   0.98603269    -0.24467007     1.4781246      1.2334546      0.02294086   
      4350   1.0062869     -0.24658554     1.508487       1.2619014      0.022655288  
      4400   1.0313465     -0.24235087     1.5460528      1.3037019      0.023865538  
      4450   1.0110782     -0.24520777     1.5156693      1.2704616      0.022313846  
      4500   0.98276375    -0.23326418     1.4732243      1.2399601      0.023326719  
      4550   1.0300685     -0.2436437      1.544137       1.3004933      0.023498175  
      4600   1.0219981     -0.23262068     1.5320391      1.2994184      0.022965358  
      4650   1.0039675     -0.22964293     1.50501        1.275367       0.023054043  
      4700   1.0039077     -0.24009618     1.5049203      1.2648241      0.021924351  
      4750   1.0072512     -0.23125905     1.5099325      1.2786735      0.023291744  
      4800   0.99395307    -0.22737056     1.4899978      1.2626272      0.022525627  
      4850   0.99684051    -0.23527629     1.4943262      1.2590499      0.022177137  
      4900   1.0349088     -0.22277716     1.551393       1.3286158      0.02504265   
      4950   0.96309081    -0.22755268     1.4437333      1.2161806      0.02243427   
      5000   1.0316627     -0.23539641     1.5465269      1.3111304      0.022616568  
      5050   0.9731167     -0.22630978     1.4587628      1.232453       0.022144062  
      5100   0.98046968    -0.22760748     1.4697853      1.2421778      0.022831464  
      5150   1.0216228     -0.22242791     1.5314764      1.3090485      0.022507895  
      5200   1.0350525     -0.22183303     1.5516084      1.3297754      0.022635018  
      5250   1.0186504     -0.22294298     1.5270206      1.3040776      0.023145757  
      5300   1.0150214     -0.23258809     1.5215805      1.2889924      0.023000229  
      5350   0.99700485    -0.21788239     1.4945726      1.2766902      0.023914507  
      5400   1.0177351     -0.23114412     1.5256485      1.2945044      0.022832998  
      5450   0.971104      -0.22375747     1.4557456      1.2319881      0.022662055  
      5500   0.99082267    -0.22177812     1.4853051      1.263527       0.023712714  
      5550   0.99447748    -0.2207772      1.4907839      1.2700067      0.023513213  
      5600   0.99917304    -0.22378799     1.4978228      1.2740348      0.021965692  
      5650   0.95958844    -0.22613711     1.438483       1.2123459      0.020865009  
      5700   1.0084434     -0.22344864     1.5117197      1.2882711      0.022950224  
      5750   1.0152688     -0.22419496     1.5219514      1.2977564      0.023546921  
      5800   0.98710524    -0.22719956     1.4797324      1.2525329      0.022612453  
      5850   1.008039      -0.23034044     1.5111135      1.2807731      0.022707482  
      5900   0.99697384    -0.22201658     1.4945261      1.2725095      0.023171027  
      5950   0.98324942    -0.21841192     1.4739523      1.2555404      0.022799757  
      6000   0.97646477    -0.22140958     1.4637817      1.2423721      0.021586219  
      6050   1.0177098     -0.22042564     1.5256105      1.3051849      0.023778671  
      6100   0.98062938    -0.22791802     1.4700247      1.2421067      0.02156192   
      6150   0.9843004     -0.22079714     1.4755278      1.2547307      0.022470235  
      6200   1.0073014     -0.22371717     1.5100078      1.2862906      0.02421314   
      6250   1.0055145     -0.21577539     1.5073291      1.2915537      0.023805455  
      6300   1.009899      -0.20932405     1.5139017      1.3045777      0.024462074  
      6350   1.0204905     -0.2216889      1.529779       1.3080901      0.022286699  
      6400   1.0064162     -0.21908085     1.5086808      1.2896         0.02319959   
      6450   1.0141807     -0.23218311     1.5203202      1.2881371      0.023078341  
      6500   0.9756163     -0.2295054      1.4625098      1.2330044      0.022668052  
      6550   0.99209152    -0.22738928     1.4872072      1.2598179      0.023064339  
      6600   0.98047411    -0.22973221     1.469792       1.2400598      0.02212701   
      6650   1.0133641     -0.22716669     1.519096       1.2919294      0.023255778  
      6700   1.0133218     -0.21829039     1.5190327      1.3007423      0.025135592  
      6750   1.0013412     -0.22205879     1.501073       1.2790142      0.022742697  
      6800   0.98053445    -0.21412398     1.4698824      1.2557584      0.022636613  
      6850   1.0165533     -0.21186095     1.523877       1.312016       0.025110546  
      6900   0.99310104    -0.2188332      1.4887205      1.2698873      0.023553774  
      6950   1.0419072     -0.21590156     1.5618841      1.3459825      0.025053122  
      7000   1.0179811     -0.22182372     1.5260173      1.3041936      0.023916795  
      7050   1.0315552     -0.22750024     1.5463657      1.3188655      0.02375995   
      7100   0.97093497    -0.22889401     1.4554922      1.2265982      0.022149458  
      7150   1.0133331     -0.22555257     1.5190497      1.2934971      0.023988883  
      7200   1.0250668     -0.22807234     1.5366392      1.3085669      0.023997734  
      7250   0.98396688    -0.23056952     1.4750279      1.2444583      0.023181137  
      7300   1.0146578     -0.23247084     1.5210354      1.2885646      0.02301881   
      7350   1.0157175     -0.22893476     1.522624       1.2936892      0.02388295   
      7400   1.0187788     -0.22232064     1.527213       1.3048924      0.023307453  
      7450   1.0022909     -0.22595992     1.5024966      1.2765367      0.023092909  
      7500   1.0086056     -0.22364288     1.5119628      1.28832        0.023841062  
      7550   0.99616649    -0.21034308     1.4933158      1.2829727      0.025327349  
      7600   1.0049341     -0.2270805      1.5064591      1.2793786      0.023375158  
      7650   1.0201887     -0.22619623     1.5293267      1.3031304      0.023287569  
      7700   0.97102136    -0.21438203     1.4556217      1.2412397      0.023037532  
      7750   1.0026181     -0.2188608      1.5029872      1.2841264      0.022339654  
      7800   0.98526718    -0.21893568     1.4769771      1.2580414      0.022266115  
      7850   0.98783603    -0.21124155     1.480828       1.2695864      0.022363868  
      7900   1.0235277     -0.21601006     1.534332       1.3183219      0.023015213  
      7950   0.96362872    -0.21230537     1.4445397      1.2322343      0.021656849  
      8000   1.0092238     -0.22376822     1.5128895      1.2891213      0.022754425  
      8050   0.98288696    -0.22668167     1.473409       1.2467273      0.0216676    
      8100   0.98512948    -0.22562472     1.4767707      1.251146       0.022657839  
      8150   0.99891159    -0.23071419     1.4974309      1.2667167      0.023318654  
      8200   1.0235118     -0.23523159     1.5343082      1.2990766      0.0234016    
      8250   1.01647       -0.23263673     1.5237521      1.2911153      0.023674346  
      8300   1.0162291     -0.23132852     1.523391       1.2920624      0.022723861  
      8350   0.98361458    -0.22435332     1.4744997      1.2501464      0.023493435  
      8400   0.99187518    -0.2309744      1.4868829      1.2559085      0.024089676  
      8450   0.99271107    -0.2342838      1.4881359      1.2538521      0.02469466   
      8500   1.0217998     -0.23241466     1.5317418      1.2993272      0.025763856  
      8550   0.98440186    -0.24320637     1.4756799      1.2324735      0.022763391  
      8600   0.9736087     -0.2322634      1.4595003      1.2272369      0.021402717  
      8650   1.0207316     -0.23679685     1.5301405      1.2933436      0.023456435  
      8700   1.0113922     -0.23344101     1.5161401      1.2826991      0.023722201  
      8750   0.99552865    -0.23611803     1.4923597      1.2562416      0.023338009  
      8800   1.0407486     -0.2334279      1.5601472      1.3267193      0.024356832  
      8850   1.002255      -0.22696749     1.502443       1.2754755      0.02255009   
      8900   0.97881944    -0.22662141     1.4673115      1.2406901      0.02283627   
      8950   1.0083302     -0.22458934     1.51155        1.2869607      0.02312108   
      9000   1.0320437     -0.22102804     1.547098       1.32607        0.022890232  
      9050   1.0016035     -0.22234904     1.5014663      1.2791172      0.022428271  
      9100   0.94939521    -0.22327423     1.4232028      1.1999285      0.021883253  
      9150   1.061716      -0.22338701     1.5915786      1.3681916      0.024360871  
      9200   1.0306364     -0.23711865     1.5449883      1.3078697      0.023058889  
      9250   0.98286875    -0.23552331     1.4733817      1.2378584      0.023700039  
      9300   0.98129171    -0.23640917     1.4710176      1.2346084      0.021669055  
      9350   1.0313231     -0.24349214     1.5460178      1.3025257      0.023544056  
      9400   0.99655957    -0.242145       1.4939051      1.2517601      0.02422084   
      9450   0.99930954    -0.23205297     1.4980275      1.2659745      0.023856314  
      9500   0.98467549    -0.24183329     1.4760901      1.2342568      0.022296287  
      9550   0.93079014    -0.23219509     1.3953126      1.1631175      0.0216847    
      9600   0.98856238    -0.22965516     1.4819168      1.2522616      0.022867462  
      9650   0.99684413    -0.22637315     1.4943316      1.2679585      0.023789476  
      9700   1.0058228     -0.22861132     1.5077913      1.27918        0.024087948  
      9750   0.99765585    -0.23806863     1.4955485      1.2574798      0.022680501  
      9800   1.0249084     -0.23267063     1.5364018      1.3037312      0.023190177  
      9850   1.0121244     -0.23210258     1.5172378      1.2851352      0.021952009  
      9900   1.0252374     -0.23125282     1.536895       1.3056421      0.023144332  
      9950   0.99460297    -0.23298431     1.490972       1.2579877      0.023080722  
     10000   0.99735218    -0.23588564     1.4950933      1.2592076      0.023567018  
     10050   0.97667136    -0.23843037     1.4640914      1.225661       0.023261457  
     10100   0.99364281    -0.23095645     1.4895327      1.2585762      0.023615614  
     10150   1.0069532     -0.22927317     1.5094858      1.2802126      0.023361052  
     10200   0.97956138    -0.22384165     1.4684237      1.2445821      0.022640368  
     10250   1.0358142     -0.22541339     1.5527502      1.3273368      0.023661582  
     10300   0.96304312    -0.21715397     1.4436618      1.2265079      0.023348397  
     10350   1.0102239     -0.21092374     1.5143888      1.3034651      0.023946867  
     10388   0.98890895    -0.22091227     1.4824363      1.2615241      0.02273762   
Loop time of 0.886975 on 1 procs for 10000 steps with 1600 atoms

Performance: 4870487.453 tau/day, 11274.277 timesteps/s, 18.039 Matom-step/s
99.4% CPU use with 1 MPI tasks x no OpenMP threads

MPI task timing breakdown:
Section |  min time  |  avg time  |  max time  |%varavg| %total
---------------------------------------------------------------
Pair    | 0.13897    | 0.13897    | 0.13897    |   0.0 | 15.67
Neigh   | 0.23736    | 0.23736    | 0.23736    |   0.0 | 26.76
Comm    | 0.041464   | 0.041464   | 0.041464   |   0.0 |  4.67
Output  | 0.06765    | 0.06765    | 0.06765    |   0.0 |  7.63
Modify  | 0.37127    | 0.37127    | 0.37127    |   0.0 | 41.86
Other   |            | 0.03026    |            |       |  3.41

Nlocal:           1600 ave        1600 max        1600 min
Histogram: 1 0 0 0 0 0 0 0 0 0
Nghost:            737 ave         737 max         737 min
Histogram: 1 0 0 0 0 0 0 0 0 0
Neighs:           1938 ave        1938 max        1938 min
Histogram: 1 0 0 0 0 0 0 0 0 0

Total # of neighbors = 1938
Ave neighs/atom = 1.21125
Neighbor list builds = 1258
Dangerous builds = 0


Total wall time: 0:00:00
